# Solution for model photosynthesis_srl_ilp
# Objective value = 6.9340582669922554e+01
Z_603_0_0 0
Z_603_0_1 0
Z_603_0_2 1
Z_603_0_3 0
Z_603_0_4 0
Z_603_2_0 0
Z_603_2_1 0
Z_603_2_2 0
Z_603_2_3 1
Z_603_2_4 0
Z_603_3_0 0
Z_603_3_1 0
Z_603_3_2 0
Z_603_3_3 0
Z_603_3_4 1
Z_221_0_0 0
Z_221_0_1 0
Z_221_0_2 0
Z_221_0_3 0
Z_221_0_4 1
Z_595_0_0 0
Z_595_0_1 0
Z_595_0_2 0
Z_595_0_3 1
Z_595_0_4 0
Z_378_2_0 0
Z_378_2_1 0
Z_378_2_2 0
Z_378_2_3 0
Z_378_2_4 1
Z_378_0_0 0
Z_378_0_1 0
Z_378_0_2 0
Z_378_0_3 0
Z_378_0_4 1
Z_378_1_0 0
Z_378_1_1 0
Z_378_1_2 0
Z_378_1_3 0
Z_378_1_4 1
Z_378_3_0 0
Z_378_3_1 1
Z_378_3_2 0
Z_378_3_3 0
Z_378_3_4 0
Z_265_0_0 0
Z_265_0_1 0
Z_265_0_2 1
Z_265_0_3 0
Z_265_0_4 0
Z_43_0_0 0
Z_43_0_1 0
Z_43_0_2 0
Z_43_0_3 1
Z_43_0_4 0
Z_17_0_0 0
Z_17_0_1 1
Z_17_0_2 0
Z_17_0_3 0
Z_17_0_4 0
Z_304_0_0 0
Z_304_0_1 1
Z_304_0_2 0
Z_304_0_3 0
Z_304_0_4 0
Z_206_0_0 0
Z_206_0_1 0
Z_206_0_2 1
Z_206_0_3 0
Z_206_0_4 0
Z_245_0_0 0
Z_245_0_1 0
Z_245_0_2 1
Z_245_0_3 0
Z_245_0_4 0
Z_245_3_0 0
Z_245_3_1 0
Z_245_3_2 0
Z_245_3_3 0
Z_245_3_4 1
Z_245_2_0 0
Z_245_2_1 0
Z_245_2_2 0
Z_245_2_3 1
Z_245_2_4 0
Z_543_0_0 0
Z_543_0_1 0
Z_543_0_2 0
Z_543_0_3 1
Z_543_0_4 0
Z_151_0_0 0
Z_151_0_1 0
Z_151_0_2 1
Z_151_0_3 0
Z_151_0_4 0
Z_241_0_0 0
Z_241_0_1 0
Z_241_0_2 0
Z_241_0_3 1
Z_241_0_4 0
Z_303_0_0 0
Z_303_0_1 1
Z_303_0_2 0
Z_303_0_3 0
Z_303_0_4 0
Z_303_2_0 0
Z_303_2_1 0
Z_303_2_2 0
Z_303_2_3 0
Z_303_2_4 1
Z_303_1_0 0
Z_303_1_1 0
Z_303_1_2 0
Z_303_1_3 0
Z_303_1_4 1
Z_303_3_0 0
Z_303_3_1 0
Z_303_3_2 0
Z_303_3_3 0
Z_303_3_4 1
Z_559_0_0 0
Z_559_0_1 0
Z_559_0_2 1
Z_559_0_3 0
Z_559_0_4 0
Z_646_0_0 0
Z_646_0_1 0
Z_646_0_2 1
Z_646_0_3 0
Z_646_0_4 0
Z_743_0_0 0
Z_743_0_1 1
Z_743_0_2 0
Z_743_0_3 0
Z_743_0_4 0
Z_446_0_0 0
Z_446_0_1 0
Z_446_0_2 1
Z_446_0_3 0
Z_446_0_4 0
Z_433_0_0 0
Z_433_0_1 0
Z_433_0_2 1
Z_433_0_3 0
Z_433_0_4 0
Z_433_1_0 1
Z_433_1_1 0
Z_433_1_2 0
Z_433_1_3 0
Z_433_1_4 0
Z_118_4_0 0
Z_118_4_1 0
Z_118_4_2 0
Z_118_4_3 0
Z_118_4_4 1
Z_118_3_0 0
Z_118_3_1 0
Z_118_3_2 0
Z_118_3_3 0
Z_118_3_4 1
Z_118_0_0 0
Z_118_0_1 0
Z_118_0_2 1
Z_118_0_3 0
Z_118_0_4 0
Z_118_2_0 0
Z_118_2_1 0
Z_118_2_2 0
Z_118_2_3 0
Z_118_2_4 1
Z_118_1_0 0
Z_118_1_1 0
Z_118_1_2 0
Z_118_1_3 0
Z_118_1_4 1
Z_431_0_0 0
Z_431_0_1 0
Z_431_0_2 1
Z_431_0_3 0
Z_431_0_4 0
Z_81_0_0 0
Z_81_0_1 1
Z_81_0_2 0
Z_81_0_3 0
Z_81_0_4 0
Z_137_0_0 0
Z_137_0_1 0
Z_137_0_2 0
Z_137_0_3 0
Z_137_0_4 1
Z_137_4_0 0
Z_137_4_1 1
Z_137_4_2 0
Z_137_4_3 0
Z_137_4_4 0
Z_137_3_0 0
Z_137_3_1 0
Z_137_3_2 0
Z_137_3_3 0
Z_137_3_4 1
Z_137_2_0 0
Z_137_2_1 0
Z_137_2_2 0
Z_137_2_3 0
Z_137_2_4 1
Z_137_1_0 0
Z_137_1_1 0
Z_137_1_2 0
Z_137_1_3 0
Z_137_1_4 1
Z_664_2_0 0
Z_664_2_1 0
Z_664_2_2 1
Z_664_2_3 0
Z_664_2_4 0
Z_664_1_0 0
Z_664_1_1 0
Z_664_1_2 0
Z_664_1_3 0
Z_664_1_4 1
Z_664_4_0 0
Z_664_4_1 0
Z_664_4_2 0
Z_664_4_3 0
Z_664_4_4 1
Z_664_3_0 0
Z_664_3_1 0
Z_664_3_2 0
Z_664_3_3 0
Z_664_3_4 1
Z_374_7_0 0
Z_374_7_1 0
Z_374_7_2 0
Z_374_7_3 1
Z_374_7_4 0
Z_374_5_0 0
Z_374_5_1 0
Z_374_5_2 0
Z_374_5_3 0
Z_374_5_4 1
Z_374_4_0 0
Z_374_4_1 0
Z_374_4_2 0
Z_374_4_3 0
Z_374_4_4 1
Z_374_1_0 0
Z_374_1_1 0
Z_374_1_2 0
Z_374_1_3 0
Z_374_1_4 1
Z_374_3_0 0
Z_374_3_1 0
Z_374_3_2 0
Z_374_3_3 0
Z_374_3_4 1
Z_374_0_0 0
Z_374_0_1 0
Z_374_0_2 0
Z_374_0_3 0
Z_374_0_4 1
Z_374_6_0 0
Z_374_6_1 0
Z_374_6_2 0
Z_374_6_3 0
Z_374_6_4 1
Z_374_2_0 0
Z_374_2_1 0
Z_374_2_2 0
Z_374_2_3 0
Z_374_2_4 1
Z_103_0_0 0
Z_103_0_1 0
Z_103_0_2 1
Z_103_0_3 0
Z_103_0_4 0
Z_131_1_0 0
Z_131_1_1 0
Z_131_1_2 0
Z_131_1_3 0
Z_131_1_4 1
Z_131_0_0 0
Z_131_0_1 0
Z_131_0_2 0
Z_131_0_3 0
Z_131_0_4 1
Z_131_2_0 0
Z_131_2_1 0
Z_131_2_2 1
Z_131_2_3 0
Z_131_2_4 0
Z_369_0_0 0
Z_369_0_1 1
Z_369_0_2 0
Z_369_0_3 0
Z_369_0_4 0
Z_154_0_0 0
Z_154_0_1 1
Z_154_0_2 0
Z_154_0_3 0
Z_154_0_4 0
Z_276_1_0 0
Z_276_1_1 0
Z_276_1_2 0
Z_276_1_3 0
Z_276_1_4 1
Z_276_3_0 0
Z_276_3_1 0
Z_276_3_2 0
Z_276_3_3 0
Z_276_3_4 1
Z_276_4_0 0
Z_276_4_1 0
Z_276_4_2 0
Z_276_4_3 0
Z_276_4_4 1
Z_276_0_0 0
Z_276_0_1 0
Z_276_0_2 0
Z_276_0_3 0
Z_276_0_4 1
Z_276_2_0 0
Z_276_2_1 1
Z_276_2_2 0
Z_276_2_3 0
Z_276_2_4 0
Z_276_5_0 0
Z_276_5_1 0
Z_276_5_2 0
Z_276_5_3 0
Z_276_5_4 1
Z_660_0_0 0
Z_660_0_1 0
Z_660_0_2 0
Z_660_0_3 1
Z_660_0_4 0
Z_660_1_0 0
Z_660_1_1 0
Z_660_1_2 1
Z_660_1_3 0
Z_660_1_4 0
Z_437_0_0 0
Z_437_0_1 0
Z_437_0_2 0
Z_437_0_3 0
Z_437_0_4 1
Z_515_0_0 0
Z_515_0_1 1
Z_515_0_2 0
Z_515_0_3 0
Z_515_0_4 0
Z_405_10_0 0
Z_405_10_1 0
Z_405_10_2 0
Z_405_10_3 0
Z_405_10_4 1
Z_405_11_0 0
Z_405_11_1 0
Z_405_11_2 0
Z_405_11_3 0
Z_405_11_4 1
Z_405_6_0 0
Z_405_6_1 0
Z_405_6_2 0
Z_405_6_3 0
Z_405_6_4 1
Z_405_5_0 0
Z_405_5_1 0
Z_405_5_2 0
Z_405_5_3 0
Z_405_5_4 1
Z_405_2_0 0
Z_405_2_1 0
Z_405_2_2 1
Z_405_2_3 0
Z_405_2_4 0
Z_405_3_0 0
Z_405_3_1 0
Z_405_3_2 0
Z_405_3_3 0
Z_405_3_4 1
Z_405_4_0 0
Z_405_4_1 0
Z_405_4_2 0
Z_405_4_3 0
Z_405_4_4 1
Z_405_1_0 0
Z_405_1_1 0
Z_405_1_2 0
Z_405_1_3 0
Z_405_1_4 1
Z_405_12_0 0
Z_405_12_1 0
Z_405_12_2 0
Z_405_12_3 0
Z_405_12_4 1
Z_405_7_0 0
Z_405_7_1 0
Z_405_7_2 0
Z_405_7_3 0
Z_405_7_4 1
Z_405_9_0 0
Z_405_9_1 0
Z_405_9_2 0
Z_405_9_3 0
Z_405_9_4 1
Z_405_8_0 0
Z_405_8_1 0
Z_405_8_2 0
Z_405_8_3 0
Z_405_8_4 1
Z_295_0_0 0
Z_295_0_1 1
Z_295_0_2 0
Z_295_0_3 0
Z_295_0_4 0
Z_402_0_0 0
Z_402_0_1 0
Z_402_0_2 0
Z_402_0_3 1
Z_402_0_4 0
Z_402_1_0 0
Z_402_1_1 0
Z_402_1_2 1
Z_402_1_3 0
Z_402_1_4 0
Z_683_3_0 0
Z_683_3_1 0
Z_683_3_2 0
Z_683_3_3 0
Z_683_3_4 1
Z_683_4_0 0
Z_683_4_1 0
Z_683_4_2 0
Z_683_4_3 0
Z_683_4_4 1
Z_683_5_0 0
Z_683_5_1 0
Z_683_5_2 0
Z_683_5_3 0
Z_683_5_4 1
Z_683_2_0 0
Z_683_2_1 0
Z_683_2_2 0
Z_683_2_3 0
Z_683_2_4 1
Z_683_8_0 0
Z_683_8_1 0
Z_683_8_2 0
Z_683_8_3 0
Z_683_8_4 1
Z_683_1_0 0
Z_683_1_1 0
Z_683_1_2 0
Z_683_1_3 0
Z_683_1_4 1
Z_683_7_0 0
Z_683_7_1 1
Z_683_7_2 0
Z_683_7_3 0
Z_683_7_4 0
Z_683_6_0 0
Z_683_6_1 0
Z_683_6_2 0
Z_683_6_3 0
Z_683_6_4 1
Z_435_0_0 0
Z_435_0_1 0
Z_435_0_2 0
Z_435_0_3 1
Z_435_0_4 0
Z_93_0_0 0
Z_93_0_1 0
Z_93_0_2 0
Z_93_0_3 0
Z_93_0_4 1
Z_502_3_0 0
Z_502_3_1 0
Z_502_3_2 0
Z_502_3_3 0
Z_502_3_4 1
Z_502_4_0 0
Z_502_4_1 0
Z_502_4_2 1
Z_502_4_3 0
Z_502_4_4 0
Z_502_2_0 0
Z_502_2_1 0
Z_502_2_2 0
Z_502_2_3 0
Z_502_2_4 1
Z_502_1_0 0
Z_502_1_1 0
Z_502_1_2 0
Z_502_1_3 0
Z_502_1_4 1
Z_502_5_0 0
Z_502_5_1 0
Z_502_5_2 0
Z_502_5_3 0
Z_502_5_4 1
